benchmark/results/graph__15-1000-0.10-03_13/graph__15-1000-0.10-03_13_Quinton_Benders_primal_sub.lp
\ This file has been generated by DOcplex
\ ENCODING=ISO-8859-1
\Problem name: Quinton Benders_primal_sub

Maximize
 obj: tau
Subject To
 c1: tau <= 0.001315789474
 c2: y_a0_proc_1 + y_a0_proc_2 - tau = 0
 c3: y_a0_proc_1 <= 1
 c4: y_a0_proc_2 <= 0
 c5: tau <= 0.000904977376
 c6: y_a1_proc_0 + y_a1_proc_2 - tau = 0
 c7: y_a1_proc_0 <= 0
 c8: y_a1_proc_2 <= 1
 c9: tau <= 0.001351351351
 c10: y_a2_proc_0 + y_a2_proc_1 + y_a2_proc_2 - tau = 0
 c11: y_a2_proc_0 <= 0
 c12: y_a2_proc_1 <= 0
 c13: y_a2_proc_2 <= 1
 c14: tau <= 0.001067235859
 c15: y_a3_proc_0 + y_a3_proc_1 + y_a3_proc_2 - tau = 0
 c16: y_a3_proc_0 <= 1
 c17: y_a3_proc_1 <= 0
 c18: y_a3_proc_2 <= 0
 c19: tau <= 0.001180637544
 c20: y_a4_proc_0 + y_a4_proc_1 + y_a4_proc_2 - tau = 0
 c21: y_a4_proc_0 <= 0
 c22: y_a4_proc_1 <= 1
 c23: y_a4_proc_2 <= 0
 c24: tau <= 0.000992063492
 c25: y_a5_proc_0 + y_a5_proc_2 - tau = 0
 c26: y_a5_proc_0 <= 0
 c27: y_a5_proc_2 <= 1
 c28: tau <= 0.001360544218
 c29: y_a6_proc_0 + y_a6_proc_1 + y_a6_proc_2 - tau = 0
 c30: y_a6_proc_0 <= 1
 c31: y_a6_proc_1 <= 0
 c32: y_a6_proc_2 <= 0
 c33: tau <= 0.000801924619
 c34: y_a7_proc_0 + y_a7_proc_1 + y_a7_proc_2 - tau = 0
 c35: y_a7_proc_0 <= 0
 c36: y_a7_proc_1 <= 1
 c37: y_a7_proc_2 <= 0
 c38: tau <= 0.001754385965
 c39: y_a8_proc_1 + y_a8_proc_2 - tau = 0
 c40: y_a8_proc_1 <= 1
 c41: y_a8_proc_2 <= 0
 c42: tau <= 0.001128668172
 c43: y_a9_proc_0 + y_a9_proc_1 + y_a9_proc_2 - tau = 0
 c44: y_a9_proc_0 <= 0
 c45: y_a9_proc_1 <= 0
 c46: y_a9_proc_2 <= 1
 c47: tau <= 0.000918273646
 c48: y_a10_proc_0 + y_a10_proc_1 + y_a10_proc_2 - tau = 0
 c49: y_a10_proc_0 <= 0
 c50: y_a10_proc_1 <= 0
 c51: y_a10_proc_2 <= 1
 c52: tau <= 0.000988142292
 c53: y_a11_proc_1 + y_a11_proc_2 - tau = 0
 c54: y_a11_proc_1 <= 1
 c55: y_a11_proc_2 <= 0
 c56: tau <= 0.001191895113
 c57: y_a12_proc_0 + y_a12_proc_1 - tau = 0
 c58: y_a12_proc_0 <= 0
 c59: y_a12_proc_1 <= 1
 c60: tau <= 0.001153402537
 c61: y_a13_proc_0 + y_a13_proc_1 + y_a13_proc_2 - tau = 0
 c62: y_a13_proc_0 <= 1
 c63: y_a13_proc_1 <= 0
 c64: y_a13_proc_2 <= 0
 c65: tau <= 0.001156069364
 c66: y_a14_proc_0 + y_a14_proc_1 + y_a14_proc_2 - tau = 0
 c67: y_a14_proc_0 <= 1
 c68: y_a14_proc_1 <= 0
 c69: y_a14_proc_2 <= 0
 c70: u_a1 - u_a0 - 760 y_a0_proc_1 - 992 y_a0_proc_2 >= -1
 c71: u_a0 - u_a2 - 1034 y_a2_proc_0 - 941 y_a2_proc_1 - 740 y_a2_proc_2 >= 0
 c72: u_a2 - u_a3 - 937 y_a3_proc_0 - 1064 y_a3_proc_1 - 901 y_a3_proc_2 >= 0
 c73: u_a4 - u_a3 - 937 y_a3_proc_0 - 1064 y_a3_proc_1 - 901 y_a3_proc_2 >= 0
 c74: u_a5 - u_a3 - 937 y_a3_proc_0 - 1064 y_a3_proc_1 - 901 y_a3_proc_2 >= 0
 c75: u_a6 - u_a0 - 760 y_a0_proc_1 - 992 y_a0_proc_2 >= 0
 c76: u_a7 - u_a6 - 735 y_a6_proc_0 - 812 y_a6_proc_1 - 861 y_a6_proc_2 >= 0
 c77: u_a8 - u_a5 - 777 y_a5_proc_0 - 1008 y_a5_proc_2 >= -1
 c78: u_a7 - u_a9 - 1295 y_a9_proc_0 - 1024 y_a9_proc_1 - 886 y_a9_proc_2 >= 0
 c79: u_a10 - u_a0 - 760 y_a0_proc_1 - 992 y_a0_proc_2 >= 0
 c80: u_a0 - u_a11 - 1012 y_a11_proc_1 - 1257 y_a11_proc_2 >= 0
 c81: u_a12 - u_a1 - 1169 y_a1_proc_0 - 1105 y_a1_proc_2 >= 0
 c82: u_a13 - u_a11 - 1012 y_a11_proc_1 - 1257 y_a11_proc_2 >= 0
 c83: u_a14 - u_a5 - 777 y_a5_proc_0 - 1008 y_a5_proc_2 >= -1
 c84: u_a4 - u_a12 - 790 y_a12_proc_0 - 839 y_a12_proc_1 >= -1
 c85: u_a9 - u_a8 - 570 y_a8_proc_1 - 1299 y_a8_proc_2 >= 0
 c86: u_a3 - u_a8 - 570 y_a8_proc_1 - 1299 y_a8_proc_2 >= 0
 c87: u_a0 - u_a14 - 865 y_a14_proc_0 - 956 y_a14_proc_1 - 1281 y_a14_proc_2
       >= 0
 c88: - 777 y_a5_proc_0 - 1008 y_a5_proc_2 >= -1
 c89: - 1028 y_a7_proc_0 - 1247 y_a7_proc_1 - 911 y_a7_proc_2 >= -1
 c90: u_a3 - u_a13 - 867 y_a13_proc_0 - 669 y_a13_proc_1 - 1075 y_a13_proc_2
       >= 0
 c91: u_a10 - u_a8 - 570 y_a8_proc_1 - 1299 y_a8_proc_2 >= 0
 c92: u_a2 - u_a14 - 865 y_a14_proc_0 - 956 y_a14_proc_1 - 1281 y_a14_proc_2
       >= 0
 c93: u_a11 - u_a10 - 1180 y_a10_proc_0 - 1091 y_a10_proc_1 - 1089 y_a10_proc_2
       >= -1
 c94: u_a2 - u_a4 - 1247 y_a4_proc_0 - 847 y_a4_proc_1 - 655 y_a4_proc_2 >= 0
 c95: u_a14 - u_a10 - 1180 y_a10_proc_0 - 1091 y_a10_proc_1 - 1089 y_a10_proc_2
       >= -1
 c96: u_a8 - u_a13 - 867 y_a13_proc_0 - 669 y_a13_proc_1 - 1075 y_a13_proc_2
       >= 0
 c97: u_a6 - u_a4 - 1247 y_a4_proc_0 - 847 y_a4_proc_1 - 655 y_a4_proc_2 >= 0
 c98: u_a6 - u_a9 - 1295 y_a9_proc_0 - 1024 y_a9_proc_1 - 886 y_a9_proc_2 >= 0
 c99: u_a10 - u_a14 - 865 y_a14_proc_0 - 956 y_a14_proc_1 - 1281 y_a14_proc_2
       >= 0
 c100: u_a1 - u_a12 - 790 y_a12_proc_0 - 839 y_a12_proc_1 >= -1
 c101: u_a1 - u_a0 - 992 y_a0_proc_2 >= -2598
 c102: u_a0 - u_a1 - 1105 y_a1_proc_2 >= -1
 c103: u_a2 - u_a0 - 992 y_a0_proc_2 >= -2598
 c104: u_a2 - u_a0 - 760 y_a0_proc_1 >= -2598
 c105: u_a0 - u_a2 - 740 y_a2_proc_2 >= -1
 c106: u_a0 - u_a2 - 941 y_a2_proc_1 >= -1
 c107: u_a3 - u_a0 - 992 y_a0_proc_2 >= -3898
 c108: u_a3 - u_a0 - 760 y_a0_proc_1 >= -2599
 c109: u_a0 - u_a3 - 901 y_a3_proc_2 >= -1299
 c110: u_a0 - u_a3 - 1064 y_a3_proc_1 >= 0
 c111: u_a4 - u_a0 - 992 y_a0_proc_2 >= -2599
 c112: u_a4 - u_a0 - 760 y_a0_proc_1 >= -1
 c113: u_a0 - u_a4 - 655 y_a4_proc_2 >= -2598
 c114: u_a0 - u_a4 - 847 y_a4_proc_1 >= 0
 c115: u_a5 - u_a0 - 992 y_a0_proc_2 >= -2599
 c116: u_a0 - u_a5 - 1008 y_a5_proc_2 >= 0
 c117: u_a6 - u_a0 - 992 y_a0_proc_2 >= -3897
 c118: u_a6 - u_a0 - 760 y_a0_proc_1 >= -2598
 c119: u_a0 - u_a6 - 861 y_a6_proc_2 >= -1300
 c120: u_a0 - u_a6 - 812 y_a6_proc_1 >= -1
 c121: u_a7 - u_a0 - 992 y_a0_proc_2 >= -2597
 c122: u_a7 - u_a0 - 760 y_a0_proc_1 >= 1
 c123: u_a0 - u_a7 - 911 y_a7_proc_2 >= -2600
 c124: u_a0 - u_a7 - 1247 y_a7_proc_1 >= -2
 c125: u_a8 - u_a0 - 992 y_a0_proc_2 >= -2599
 c126: u_a8 - u_a0 - 760 y_a0_proc_1 >= -1
 c127: u_a0 - u_a8 - 1299 y_a8_proc_2 >= -2598
 c128: u_a0 - u_a8 - 570 y_a8_proc_1 >= 0
 c129: u_a9 - u_a0 - 992 y_a0_proc_2 >= -2598
 c130: u_a9 - u_a0 - 760 y_a0_proc_1 >= -2598
 c131: u_a0 - u_a9 - 886 y_a9_proc_2 >= -1
 c132: u_a0 - u_a9 - 1024 y_a9_proc_1 >= -1
 c133: u_a10 - u_a0 - 992 y_a0_proc_2 >= -2598
 c134: u_a10 - u_a0 - 760 y_a0_proc_1 >= -2598
 c135: u_a0 - u_a10 - 1089 y_a10_proc_2 >= -1
 c136: u_a0 - u_a10 - 1091 y_a10_proc_1 >= -1
 c137: u_a11 - u_a0 - 992 y_a0_proc_2 >= -2599
 c138: u_a11 - u_a0 - 760 y_a0_proc_1 >= -1
 c139: u_a0 - u_a11 - 1257 y_a11_proc_2 >= -2598
 c140: u_a0 - u_a11 - 1012 y_a11_proc_1 >= 0
 c141: u_a12 - u_a0 - 760 y_a0_proc_1 >= 0
 c142: u_a0 - u_a12 - 839 y_a12_proc_1 >= -1
 c143: u_a13 - u_a0 - 992 y_a0_proc_2 >= -3898
 c144: u_a13 - u_a0 - 760 y_a0_proc_1 >= -2599
 c145: u_a0 - u_a13 - 1075 y_a13_proc_2 >= -1299
 c146: u_a0 - u_a13 - 669 y_a13_proc_1 >= 0
 c147: u_a14 - u_a0 - 992 y_a0_proc_2 >= -3898
 c148: u_a14 - u_a0 - 760 y_a0_proc_1 >= -2599
 c149: u_a0 - u_a14 - 1281 y_a14_proc_2 >= -1299
 c150: u_a0 - u_a14 - 956 y_a14_proc_1 >= 0
 c151: u_a2 - u_a1 - 1105 y_a1_proc_2 >= -1
 c152: u_a2 - u_a1 - 1169 y_a1_proc_0 >= -2599
 c153: u_a1 - u_a2 - 740 y_a2_proc_2 >= 0
 c154: u_a1 - u_a2 - 1034 y_a2_proc_0 >= -2598
 c155: u_a3 - u_a1 - 1105 y_a1_proc_2 >= -2600
 c156: u_a3 - u_a1 - 1169 y_a1_proc_0 >= -2600
 c157: u_a1 - u_a3 - 901 y_a3_proc_2 >= 1
 c158: u_a1 - u_a3 - 937 y_a3_proc_0 >= 1
 c159: u_a4 - u_a1 - 1105 y_a1_proc_2 >= -2599
 c160: u_a4 - u_a1 - 1169 y_a1_proc_0 >= -3898
 c161: u_a1 - u_a4 - 655 y_a4_proc_2 >= 0
 c162: u_a1 - u_a4 - 1247 y_a4_proc_0 >= -1299
 c163: u_a5 - u_a1 - 1105 y_a1_proc_2 >= -2
 c164: u_a5 - u_a1 - 1169 y_a1_proc_0 >= -2600
 c165: u_a1 - u_a5 - 1008 y_a5_proc_2 >= 1
 c166: u_a1 - u_a5 - 777 y_a5_proc_0 >= -2597
 c167: u_a6 - u_a1 - 1105 y_a1_proc_2 >= -2599
 c168: u_a6 - u_a1 - 1169 y_a1_proc_0 >= -2599
 c169: u_a1 - u_a6 - 861 y_a6_proc_2 >= 0
 c170: u_a1 - u_a6 - 735 y_a6_proc_0 >= 0
 c171: u_a7 - u_a1 - 1105 y_a1_proc_2 >= -2598
 c172: u_a7 - u_a1 - 1169 y_a1_proc_0 >= -3897
 c173: u_a1 - u_a7 - 911 y_a7_proc_2 >= -1
 c174: u_a1 - u_a7 - 1028 y_a7_proc_0 >= -1300
 c175: u_a8 - u_a1 - 1105 y_a1_proc_2 >= -2600
 c176: u_a1 - u_a8 - 1299 y_a8_proc_2 >= 1
 c177: u_a9 - u_a1 - 1105 y_a1_proc_2 >= -1
 c178: u_a9 - u_a1 - 1169 y_a1_proc_0 >= -2599
 c179: u_a1 - u_a9 - 886 y_a9_proc_2 >= 0
 c180: u_a1 - u_a9 - 1295 y_a9_proc_0 >= -2598
 c181: u_a10 - u_a1 - 1105 y_a1_proc_2 >= -1
 c182: u_a10 - u_a1 - 1169 y_a1_proc_0 >= -2599
 c183: u_a1 - u_a10 - 1089 y_a10_proc_2 >= 0
 c184: u_a1 - u_a10 - 1180 y_a10_proc_0 >= -2598
 c185: u_a11 - u_a1 - 1105 y_a1_proc_2 >= -2600
 c186: u_a1 - u_a11 - 1257 y_a11_proc_2 >= 1
 c187: u_a12 - u_a1 - 1169 y_a1_proc_0 >= -5196
 c188: u_a1 - u_a12 - 790 y_a12_proc_0 >= -1
 c189: u_a13 - u_a1 - 1105 y_a1_proc_2 >= -2600
 c190: u_a13 - u_a1 - 1169 y_a1_proc_0 >= -2600
 c191: u_a1 - u_a13 - 1075 y_a13_proc_2 >= 1
 c192: u_a1 - u_a13 - 867 y_a13_proc_0 >= 1
 c193: u_a14 - u_a1 - 1105 y_a1_proc_2 >= -2600
 c194: u_a14 - u_a1 - 1169 y_a1_proc_0 >= -2600
 c195: u_a1 - u_a14 - 1281 y_a14_proc_2 >= 1
 c196: u_a1 - u_a14 - 865 y_a14_proc_0 >= 1
 c197: u_a3 - u_a2 - 740 y_a2_proc_2 >= -2599
 c198: u_a3 - u_a2 - 1034 y_a2_proc_0 >= -2599
 c199: u_a3 - u_a2 - 941 y_a2_proc_1 >= -3898
 c200: u_a2 - u_a3 - 901 y_a3_proc_2 >= 0
 c201: u_a2 - u_a3 - 937 y_a3_proc_0 >= 0
 c202: u_a2 - u_a3 - 1064 y_a3_proc_1 >= -1299
 c203: u_a4 - u_a2 - 740 y_a2_proc_2 >= -2599
 c204: u_a4 - u_a2 - 1034 y_a2_proc_0 >= -3898
 c205: u_a4 - u_a2 - 941 y_a2_proc_1 >= -2599
 c206: u_a2 - u_a4 - 655 y_a4_proc_2 >= 0
 c207: u_a2 - u_a4 - 1247 y_a4_proc_0 >= -1299
 c208: u_a2 - u_a4 - 847 y_a4_proc_1 >= 0
 c209: u_a5 - u_a2 - 740 y_a2_proc_2 >= -1
 c210: u_a5 - u_a2 - 1034 y_a2_proc_0 >= -2599
 c211: u_a2 - u_a5 - 1008 y_a5_proc_2 >= 0
 c212: u_a2 - u_a5 - 777 y_a5_proc_0 >= -2598
 c213: u_a6 - u_a2 - 740 y_a2_proc_2 >= -2598
 c214: u_a6 - u_a2 - 1034 y_a2_proc_0 >= -2598
 c215: u_a6 - u_a2 - 941 y_a2_proc_1 >= -3897
 c216: u_a2 - u_a6 - 861 y_a6_proc_2 >= -1
 c217: u_a2 - u_a6 - 735 y_a6_proc_0 >= -1
 c218: u_a2 - u_a6 - 812 y_a6_proc_1 >= -1300
 c219: u_a7 - u_a2 - 740 y_a2_proc_2 >= -2597
 c220: u_a7 - u_a2 - 1034 y_a2_proc_0 >= -3896
 c221: u_a7 - u_a2 - 941 y_a2_proc_1 >= -2597
 c222: u_a2 - u_a7 - 911 y_a7_proc_2 >= -2
 c223: u_a2 - u_a7 - 1028 y_a7_proc_0 >= -1301
 c224: u_a2 - u_a7 - 1247 y_a7_proc_1 >= -2
 c225: u_a8 - u_a2 - 740 y_a2_proc_2 >= -2599
 c226: u_a8 - u_a2 - 941 y_a2_proc_1 >= -2599
 c227: u_a2 - u_a8 - 1299 y_a8_proc_2 >= 0
 c228: u_a2 - u_a8 - 570 y_a8_proc_1 >= 0
 c229: u_a9 - u_a2 - 740 y_a2_proc_2 >= 0
 c230: u_a9 - u_a2 - 1034 y_a2_proc_0 >= -2598
 c231: u_a9 - u_a2 - 941 y_a2_proc_1 >= -2598
 c232: u_a2 - u_a9 - 886 y_a9_proc_2 >= -1
 c233: u_a2 - u_a9 - 1295 y_a9_proc_0 >= -2599
 c234: u_a2 - u_a9 - 1024 y_a9_proc_1 >= -2599
 c235: u_a10 - u_a2 - 740 y_a2_proc_2 >= 0
 c236: u_a10 - u_a2 - 1034 y_a2_proc_0 >= -2598
 c237: u_a10 - u_a2 - 941 y_a2_proc_1 >= -2598
 c238: u_a2 - u_a10 - 1089 y_a10_proc_2 >= -1
 c239: u_a2 - u_a10 - 1180 y_a10_proc_0 >= -2599
 c240: u_a2 - u_a10 - 1091 y_a10_proc_1 >= -2599
 c241: u_a11 - u_a2 - 740 y_a2_proc_2 >= -2599
 c242: u_a11 - u_a2 - 941 y_a2_proc_1 >= -2599
 c243: u_a2 - u_a11 - 1257 y_a11_proc_2 >= 0
 c244: u_a2 - u_a11 - 1012 y_a11_proc_1 >= 0
 c245: u_a12 - u_a2 - 1034 y_a2_proc_0 >= -3897
 c246: u_a12 - u_a2 - 941 y_a2_proc_1 >= -2598
 c247: u_a2 - u_a12 - 790 y_a12_proc_0 >= -1300
 c248: u_a2 - u_a12 - 839 y_a12_proc_1 >= -1
 c249: u_a13 - u_a2 - 740 y_a2_proc_2 >= -2599
 c250: u_a13 - u_a2 - 1034 y_a2_proc_0 >= -2599
 c251: u_a13 - u_a2 - 941 y_a2_proc_1 >= -3898
 c252: u_a2 - u_a13 - 1075 y_a13_proc_2 >= 0
 c253: u_a2 - u_a13 - 867 y_a13_proc_0 >= 0
 c254: u_a2 - u_a13 - 669 y_a13_proc_1 >= -1299
 c255: u_a14 - u_a2 - 740 y_a2_proc_2 >= -2599
 c256: u_a14 - u_a2 - 1034 y_a2_proc_0 >= -2599
 c257: u_a14 - u_a2 - 941 y_a2_proc_1 >= -3898
 c258: u_a2 - u_a14 - 1281 y_a14_proc_2 >= 0
 c259: u_a2 - u_a14 - 865 y_a14_proc_0 >= 0
 c260: u_a2 - u_a14 - 956 y_a14_proc_1 >= -1299
 c261: u_a4 - u_a3 - 901 y_a3_proc_2 >= -3897
 c262: u_a4 - u_a3 - 937 y_a3_proc_0 >= -2598
 c263: u_a4 - u_a3 - 1064 y_a3_proc_1 >= -2598
 c264: u_a3 - u_a4 - 655 y_a4_proc_2 >= -1300
 c265: u_a3 - u_a4 - 1247 y_a4_proc_0 >= -1
 c266: u_a3 - u_a4 - 847 y_a4_proc_1 >= -1
 c267: u_a5 - u_a3 - 901 y_a3_proc_2 >= -2598
 c268: u_a5 - u_a3 - 937 y_a3_proc_0 >= -2598
 c269: u_a3 - u_a5 - 1008 y_a5_proc_2 >= -1
 c270: u_a3 - u_a5 - 777 y_a5_proc_0 >= -1
 c271: u_a6 - u_a3 - 901 y_a3_proc_2 >= -2597
 c272: u_a6 - u_a3 - 937 y_a3_proc_0 >= 1
 c273: u_a6 - u_a3 - 1064 y_a3_proc_1 >= -2597
 c274: u_a3 - u_a6 - 861 y_a6_proc_2 >= -2600
 c275: u_a3 - u_a6 - 735 y_a6_proc_0 >= -2
 c276: u_a3 - u_a6 - 812 y_a6_proc_1 >= -2600
 c277: u_a7 - u_a3 - 901 y_a3_proc_2 >= -3895
 c278: u_a7 - u_a3 - 937 y_a3_proc_0 >= -2596
 c279: u_a7 - u_a3 - 1064 y_a3_proc_1 >= -2596
 c280: u_a3 - u_a7 - 911 y_a7_proc_2 >= -1302
 c281: u_a3 - u_a7 - 1028 y_a7_proc_0 >= -3
 c282: u_a3 - u_a7 - 1247 y_a7_proc_1 >= -3
 c283: u_a8 - u_a3 - 901 y_a3_proc_2 >= -3898
 c284: u_a8 - u_a3 - 1064 y_a3_proc_1 >= -2599
 c285: u_a3 - u_a8 - 1299 y_a8_proc_2 >= -1299
 c286: u_a3 - u_a8 - 570 y_a8_proc_1 >= 0
 c287: u_a9 - u_a3 - 901 y_a3_proc_2 >= -2597
 c288: u_a9 - u_a3 - 937 y_a3_proc_0 >= -2597
 c289: u_a9 - u_a3 - 1064 y_a3_proc_1 >= -3896
 c290: u_a3 - u_a9 - 886 y_a9_proc_2 >= -2
 c291: u_a3 - u_a9 - 1295 y_a9_proc_0 >= -2
 c292: u_a3 - u_a9 - 1024 y_a9_proc_1 >= -1301
 c293: u_a10 - u_a3 - 901 y_a3_proc_2 >= -2598
 c294: u_a10 - u_a3 - 937 y_a3_proc_0 >= -2598
 c295: u_a10 - u_a3 - 1064 y_a3_proc_1 >= -3897
 c296: u_a3 - u_a10 - 1089 y_a10_proc_2 >= -1
 c297: u_a3 - u_a10 - 1180 y_a10_proc_0 >= -1
 c298: u_a3 - u_a10 - 1091 y_a10_proc_1 >= -1300
 c299: u_a11 - u_a3 - 901 y_a3_proc_2 >= -3898
 c300: u_a11 - u_a3 - 1064 y_a3_proc_1 >= -2599
 c301: u_a3 - u_a11 - 1257 y_a11_proc_2 >= -1299
 c302: u_a3 - u_a11 - 1012 y_a11_proc_1 >= 0
 c303: u_a12 - u_a3 - 937 y_a3_proc_0 >= -2597
 c304: u_a12 - u_a3 - 1064 y_a3_proc_1 >= -2597
 c305: u_a3 - u_a12 - 790 y_a12_proc_0 >= -2
 c306: u_a3 - u_a12 - 839 y_a12_proc_1 >= -2
 c307: u_a13 - u_a3 - 901 y_a3_proc_2 >= -2599
 c308: u_a13 - u_a3 - 937 y_a3_proc_0 >= -1
 c309: u_a13 - u_a3 - 1064 y_a3_proc_1 >= -2599
 c310: u_a3 - u_a13 - 1075 y_a13_proc_2 >= -2598
 c311: u_a3 - u_a13 - 867 y_a13_proc_0 >= 0
 c312: u_a3 - u_a13 - 669 y_a13_proc_1 >= -2598
 c313: u_a14 - u_a3 - 901 y_a3_proc_2 >= -2599
 c314: u_a14 - u_a3 - 937 y_a3_proc_0 >= -1
 c315: u_a14 - u_a3 - 1064 y_a3_proc_1 >= -2599
 c316: u_a3 - u_a14 - 1281 y_a14_proc_2 >= -2598
 c317: u_a3 - u_a14 - 865 y_a14_proc_0 >= 0
 c318: u_a3 - u_a14 - 956 y_a14_proc_1 >= -2598
 c319: u_a5 - u_a4 - 655 y_a4_proc_2 >= -2599
 c320: u_a5 - u_a4 - 1247 y_a4_proc_0 >= -3898
 c321: u_a4 - u_a5 - 1008 y_a5_proc_2 >= 0
 c322: u_a4 - u_a5 - 777 y_a5_proc_0 >= -1299
 c323: u_a6 - u_a4 - 655 y_a4_proc_2 >= -3897
 c324: u_a6 - u_a4 - 1247 y_a4_proc_0 >= -2598
 c325: u_a6 - u_a4 - 847 y_a4_proc_1 >= -2598
 c326: u_a4 - u_a6 - 861 y_a6_proc_2 >= -1300
 c327: u_a4 - u_a6 - 735 y_a6_proc_0 >= -1
 c328: u_a4 - u_a6 - 812 y_a6_proc_1 >= -1
 c329: u_a7 - u_a4 - 655 y_a4_proc_2 >= -2597
 c330: u_a7 - u_a4 - 1247 y_a4_proc_0 >= -2597
 c331: u_a7 - u_a4 - 847 y_a4_proc_1 >= 1
 c332: u_a4 - u_a7 - 911 y_a7_proc_2 >= -2600
 c333: u_a4 - u_a7 - 1028 y_a7_proc_0 >= -2600
 c334: u_a4 - u_a7 - 1247 y_a7_proc_1 >= -2
 c335: u_a8 - u_a4 - 655 y_a4_proc_2 >= -2599
 c336: u_a8 - u_a4 - 847 y_a4_proc_1 >= -1
 c337: u_a4 - u_a8 - 1299 y_a8_proc_2 >= -2598
 c338: u_a4 - u_a8 - 570 y_a8_proc_1 >= 0
 c339: u_a9 - u_a4 - 655 y_a4_proc_2 >= -2598
 c340: u_a9 - u_a4 - 1247 y_a4_proc_0 >= -3897
 c341: u_a9 - u_a4 - 847 y_a4_proc_1 >= -2598
 c342: u_a4 - u_a9 - 886 y_a9_proc_2 >= -1
 c343: u_a4 - u_a9 - 1295 y_a9_proc_0 >= -1300
 c344: u_a4 - u_a9 - 1024 y_a9_proc_1 >= -1
 c345: u_a10 - u_a4 - 655 y_a4_proc_2 >= -2598
 c346: u_a10 - u_a4 - 1247 y_a4_proc_0 >= -3897
 c347: u_a10 - u_a4 - 847 y_a4_proc_1 >= -2598
 c348: u_a4 - u_a10 - 1089 y_a10_proc_2 >= -1
 c349: u_a4 - u_a10 - 1180 y_a10_proc_0 >= -1300
 c350: u_a4 - u_a10 - 1091 y_a10_proc_1 >= -1
 c351: u_a11 - u_a4 - 655 y_a4_proc_2 >= -2599
 c352: u_a11 - u_a4 - 847 y_a4_proc_1 >= -1
 c353: u_a4 - u_a11 - 1257 y_a11_proc_2 >= -2598
 c354: u_a4 - u_a11 - 1012 y_a11_proc_1 >= 0
 c355: u_a12 - u_a4 - 1247 y_a4_proc_0 >= -2598
 c356: u_a12 - u_a4 - 847 y_a4_proc_1 >= 0
 c357: u_a4 - u_a12 - 790 y_a12_proc_0 >= -2599
 c358: u_a4 - u_a12 - 839 y_a12_proc_1 >= -1
 c359: u_a13 - u_a4 - 655 y_a4_proc_2 >= -3898
 c360: u_a13 - u_a4 - 1247 y_a4_proc_0 >= -2599
 c361: u_a13 - u_a4 - 847 y_a4_proc_1 >= -2599
 c362: u_a4 - u_a13 - 1075 y_a13_proc_2 >= -1299
 c363: u_a4 - u_a13 - 867 y_a13_proc_0 >= 0
 c364: u_a4 - u_a13 - 669 y_a13_proc_1 >= 0
 c365: u_a14 - u_a4 - 655 y_a4_proc_2 >= -3898
 c366: u_a14 - u_a4 - 1247 y_a4_proc_0 >= -2599
 c367: u_a14 - u_a4 - 847 y_a4_proc_1 >= -2599
 c368: u_a4 - u_a14 - 1281 y_a14_proc_2 >= -1299
 c369: u_a4 - u_a14 - 865 y_a14_proc_0 >= 0
 c370: u_a4 - u_a14 - 956 y_a14_proc_1 >= 0
 c371: u_a6 - u_a5 - 1008 y_a5_proc_2 >= 0
 c372: u_a6 - u_a5 - 777 y_a5_proc_0 >= 0
 c373: u_a5 - u_a6 - 861 y_a6_proc_2 >= -2599
 c374: u_a5 - u_a6 - 735 y_a6_proc_0 >= -2599
 c375: u_a7 - u_a5 - 1008 y_a5_proc_2 >= -2596
 c376: u_a7 - u_a5 - 777 y_a5_proc_0 >= -3895
 c377: u_a5 - u_a7 - 911 y_a7_proc_2 >= -3
 c378: u_a5 - u_a7 - 1028 y_a7_proc_0 >= -1302
 c379: u_a8 - u_a5 - 1008 y_a5_proc_2 >= -2599
 c380: u_a5 - u_a8 - 1299 y_a8_proc_2 >= 0
 c381: u_a9 - u_a5 - 1008 y_a5_proc_2 >= 0
 c382: u_a9 - u_a5 - 777 y_a5_proc_0 >= -2598
 c383: u_a5 - u_a9 - 886 y_a9_proc_2 >= -1
 c384: u_a5 - u_a9 - 1295 y_a9_proc_0 >= -2599
 c385: u_a10 - u_a5 - 1008 y_a5_proc_2 >= 0
 c386: u_a10 - u_a5 - 777 y_a5_proc_0 >= -2598
 c387: u_a5 - u_a10 - 1089 y_a10_proc_2 >= -1
 c388: u_a5 - u_a10 - 1180 y_a10_proc_0 >= -2599
 c389: u_a11 - u_a5 - 1008 y_a5_proc_2 >= -2599
 c390: u_a5 - u_a11 - 1257 y_a11_proc_2 >= 0
 c391: u_a12 - u_a5 - 777 y_a5_proc_0 >= -5195
 c392: u_a5 - u_a12 - 790 y_a12_proc_0 >= -2
 c393: u_a13 - u_a5 - 1008 y_a5_proc_2 >= -2599
 c394: u_a13 - u_a5 - 777 y_a5_proc_0 >= -2599
 c395: u_a5 - u_a13 - 1075 y_a13_proc_2 >= 0
 c396: u_a5 - u_a13 - 867 y_a13_proc_0 >= 0
 c397: u_a14 - u_a5 - 1008 y_a5_proc_2 >= -2599
 c398: u_a14 - u_a5 - 777 y_a5_proc_0 >= -2599
 c399: u_a5 - u_a14 - 1281 y_a14_proc_2 >= 0
 c400: u_a5 - u_a14 - 865 y_a14_proc_0 >= 0
 c401: u_a7 - u_a6 - 861 y_a6_proc_2 >= -3896
 c402: u_a7 - u_a6 - 735 y_a6_proc_0 >= -2597
 c403: u_a7 - u_a6 - 812 y_a6_proc_1 >= -2597
 c404: u_a6 - u_a7 - 911 y_a7_proc_2 >= -1301
 c405: u_a6 - u_a7 - 1028 y_a7_proc_0 >= -2
 c406: u_a6 - u_a7 - 1247 y_a7_proc_1 >= -2
 c407: u_a8 - u_a6 - 861 y_a6_proc_2 >= -3899
 c408: u_a8 - u_a6 - 812 y_a6_proc_1 >= -2600
 c409: u_a6 - u_a8 - 1299 y_a8_proc_2 >= -1298
 c410: u_a6 - u_a8 - 570 y_a8_proc_1 >= 1
 c411: u_a9 - u_a6 - 861 y_a6_proc_2 >= -2598
 c412: u_a9 - u_a6 - 735 y_a6_proc_0 >= -2598
 c413: u_a9 - u_a6 - 812 y_a6_proc_1 >= -3897
 c414: u_a6 - u_a9 - 886 y_a9_proc_2 >= -1
 c415: u_a6 - u_a9 - 1295 y_a9_proc_0 >= -1
 c416: u_a6 - u_a9 - 1024 y_a9_proc_1 >= -1300
 c417: u_a10 - u_a6 - 861 y_a6_proc_2 >= -2599
 c418: u_a10 - u_a6 - 735 y_a6_proc_0 >= -2599
 c419: u_a10 - u_a6 - 812 y_a6_proc_1 >= -3898
 c420: u_a6 - u_a10 - 1089 y_a10_proc_2 >= 0
 c421: u_a6 - u_a10 - 1180 y_a10_proc_0 >= 0
 c422: u_a6 - u_a10 - 1091 y_a10_proc_1 >= -1299
 c423: u_a11 - u_a6 - 861 y_a6_proc_2 >= -3899
 c424: u_a11 - u_a6 - 812 y_a6_proc_1 >= -2600
 c425: u_a6 - u_a11 - 1257 y_a11_proc_2 >= -1298
 c426: u_a6 - u_a11 - 1012 y_a11_proc_1 >= 1
 c427: u_a12 - u_a6 - 735 y_a6_proc_0 >= -2598
 c428: u_a12 - u_a6 - 812 y_a6_proc_1 >= -2598
 c429: u_a6 - u_a12 - 790 y_a12_proc_0 >= -1
 c430: u_a6 - u_a12 - 839 y_a12_proc_1 >= -1
 c431: u_a13 - u_a6 - 861 y_a6_proc_2 >= -2600
 c432: u_a13 - u_a6 - 735 y_a6_proc_0 >= -2
 c433: u_a13 - u_a6 - 812 y_a6_proc_1 >= -2600
 c434: u_a6 - u_a13 - 1075 y_a13_proc_2 >= -2597
 c435: u_a6 - u_a13 - 867 y_a13_proc_0 >= 1
 c436: u_a6 - u_a13 - 669 y_a13_proc_1 >= -2597
 c437: u_a14 - u_a6 - 861 y_a6_proc_2 >= -2600
 c438: u_a14 - u_a6 - 735 y_a6_proc_0 >= -2
 c439: u_a14 - u_a6 - 812 y_a6_proc_1 >= -2600
 c440: u_a6 - u_a14 - 1281 y_a14_proc_2 >= -2597
 c441: u_a6 - u_a14 - 865 y_a14_proc_0 >= 1
 c442: u_a6 - u_a14 - 956 y_a14_proc_1 >= -2597
 c443: u_a8 - u_a7 - 911 y_a7_proc_2 >= -2601
 c444: u_a8 - u_a7 - 1247 y_a7_proc_1 >= -3
 c445: u_a7 - u_a8 - 1299 y_a8_proc_2 >= -2596
 c446: u_a7 - u_a8 - 570 y_a8_proc_1 >= 2
 c447: u_a9 - u_a7 - 911 y_a7_proc_2 >= -2600
 c448: u_a9 - u_a7 - 1028 y_a7_proc_0 >= -3899
 c449: u_a9 - u_a7 - 1247 y_a7_proc_1 >= -2600
 c450: u_a7 - u_a9 - 886 y_a9_proc_2 >= 1
 c451: u_a7 - u_a9 - 1295 y_a9_proc_0 >= -1298
 c452: u_a7 - u_a9 - 1024 y_a9_proc_1 >= 1
 c453: u_a10 - u_a7 - 911 y_a7_proc_2 >= -2600
 c454: u_a10 - u_a7 - 1028 y_a7_proc_0 >= -3899
 c455: u_a10 - u_a7 - 1247 y_a7_proc_1 >= -2600
 c456: u_a7 - u_a10 - 1089 y_a10_proc_2 >= 1
 c457: u_a7 - u_a10 - 1180 y_a10_proc_0 >= -1298
 c458: u_a7 - u_a10 - 1091 y_a10_proc_1 >= 1
 c459: u_a11 - u_a7 - 911 y_a7_proc_2 >= -2601
 c460: u_a11 - u_a7 - 1247 y_a7_proc_1 >= -3
 c461: u_a7 - u_a11 - 1257 y_a11_proc_2 >= -2596
 c462: u_a7 - u_a11 - 1012 y_a11_proc_1 >= 2
 c463: u_a12 - u_a7 - 1028 y_a7_proc_0 >= -2599
 c464: u_a12 - u_a7 - 1247 y_a7_proc_1 >= -1
 c465: u_a7 - u_a12 - 790 y_a12_proc_0 >= -2598
 c466: u_a7 - u_a12 - 839 y_a12_proc_1 >= 0
 c467: u_a13 - u_a7 - 911 y_a7_proc_2 >= -3900
 c468: u_a13 - u_a7 - 1028 y_a7_proc_0 >= -2601
 c469: u_a13 - u_a7 - 1247 y_a7_proc_1 >= -2601
 c470: u_a7 - u_a13 - 1075 y_a13_proc_2 >= -1297
 c471: u_a7 - u_a13 - 867 y_a13_proc_0 >= 2
 c472: u_a7 - u_a13 - 669 y_a13_proc_1 >= 2
 c473: u_a14 - u_a7 - 911 y_a7_proc_2 >= -3900
 c474: u_a14 - u_a7 - 1028 y_a7_proc_0 >= -2601
 c475: u_a14 - u_a7 - 1247 y_a7_proc_1 >= -2601
 c476: u_a7 - u_a14 - 1281 y_a14_proc_2 >= -1297
 c477: u_a7 - u_a14 - 865 y_a14_proc_0 >= 2
 c478: u_a7 - u_a14 - 956 y_a14_proc_1 >= 2
 c479: u_a9 - u_a8 - 1299 y_a8_proc_2 >= -2597
 c480: u_a9 - u_a8 - 570 y_a8_proc_1 >= -2597
 c481: u_a8 - u_a9 - 886 y_a9_proc_2 >= -2
 c482: u_a8 - u_a9 - 1024 y_a9_proc_1 >= -2
 c483: u_a10 - u_a8 - 1299 y_a8_proc_2 >= -2598
 c484: u_a10 - u_a8 - 570 y_a8_proc_1 >= -2598
 c485: u_a8 - u_a10 - 1089 y_a10_proc_2 >= -1
 c486: u_a8 - u_a10 - 1091 y_a10_proc_1 >= -1
 c487: u_a11 - u_a8 - 1299 y_a8_proc_2 >= -2599
 c488: u_a11 - u_a8 - 570 y_a8_proc_1 >= -1
 c489: u_a8 - u_a11 - 1257 y_a11_proc_2 >= -2598
 c490: u_a8 - u_a11 - 1012 y_a11_proc_1 >= 0
 c491: u_a12 - u_a8 - 570 y_a8_proc_1 >= 1
 c492: u_a8 - u_a12 - 839 y_a12_proc_1 >= -2
 c493: u_a13 - u_a8 - 1299 y_a8_proc_2 >= -3898
 c494: u_a13 - u_a8 - 570 y_a8_proc_1 >= -2599
 c495: u_a8 - u_a13 - 1075 y_a13_proc_2 >= -1299
 c496: u_a8 - u_a13 - 669 y_a13_proc_1 >= 0
 c497: u_a14 - u_a8 - 1299 y_a8_proc_2 >= -3898
 c498: u_a14 - u_a8 - 570 y_a8_proc_1 >= -2599
 c499: u_a8 - u_a14 - 1281 y_a14_proc_2 >= -1299
 c500: u_a8 - u_a14 - 956 y_a14_proc_1 >= 0
 c501: u_a10 - u_a9 - 886 y_a9_proc_2 >= -1
 c502: u_a10 - u_a9 - 1295 y_a9_proc_0 >= -2599
 c503: u_a10 - u_a9 - 1024 y_a9_proc_1 >= -2599
 c504: u_a9 - u_a10 - 1089 y_a10_proc_2 >= 0
 c505: u_a9 - u_a10 - 1180 y_a10_proc_0 >= -2598
 c506: u_a9 - u_a10 - 1091 y_a10_proc_1 >= -2598
 c507: u_a11 - u_a9 - 886 y_a9_proc_2 >= -2600
 c508: u_a11 - u_a9 - 1024 y_a9_proc_1 >= -2600
 c509: u_a9 - u_a11 - 1257 y_a11_proc_2 >= 1
 c510: u_a9 - u_a11 - 1012 y_a11_proc_1 >= 1
 c511: u_a12 - u_a9 - 1295 y_a9_proc_0 >= -3897
 c512: u_a12 - u_a9 - 1024 y_a9_proc_1 >= -2598
 c513: u_a9 - u_a12 - 790 y_a12_proc_0 >= -1300
 c514: u_a9 - u_a12 - 839 y_a12_proc_1 >= -1
 c515: u_a13 - u_a9 - 886 y_a9_proc_2 >= -2600
 c516: u_a13 - u_a9 - 1295 y_a9_proc_0 >= -2600
 c517: u_a13 - u_a9 - 1024 y_a9_proc_1 >= -3899
 c518: u_a9 - u_a13 - 1075 y_a13_proc_2 >= 1
 c519: u_a9 - u_a13 - 867 y_a13_proc_0 >= 1
 c520: u_a9 - u_a13 - 669 y_a13_proc_1 >= -1298
 c521: u_a14 - u_a9 - 886 y_a9_proc_2 >= -2600
 c522: u_a14 - u_a9 - 1295 y_a9_proc_0 >= -2600
 c523: u_a14 - u_a9 - 1024 y_a9_proc_1 >= -3899
 c524: u_a9 - u_a14 - 1281 y_a14_proc_2 >= 1
 c525: u_a9 - u_a14 - 865 y_a14_proc_0 >= 1
 c526: u_a9 - u_a14 - 956 y_a14_proc_1 >= -1298
 c527: u_a11 - u_a10 - 1089 y_a10_proc_2 >= -2599
 c528: u_a11 - u_a10 - 1091 y_a10_proc_1 >= -2599
 c529: u_a10 - u_a11 - 1257 y_a11_proc_2 >= 0
 c530: u_a10 - u_a11 - 1012 y_a11_proc_1 >= 0
 c531: u_a12 - u_a10 - 1180 y_a10_proc_0 >= -3897
 c532: u_a12 - u_a10 - 1091 y_a10_proc_1 >= -2598
 c533: u_a10 - u_a12 - 790 y_a12_proc_0 >= -1300
 c534: u_a10 - u_a12 - 839 y_a12_proc_1 >= -1
 c535: u_a13 - u_a10 - 1089 y_a10_proc_2 >= -2599
 c536: u_a13 - u_a10 - 1180 y_a10_proc_0 >= -2599
 c537: u_a13 - u_a10 - 1091 y_a10_proc_1 >= -3898
 c538: u_a10 - u_a13 - 1075 y_a13_proc_2 >= 0
 c539: u_a10 - u_a13 - 867 y_a13_proc_0 >= 0
 c540: u_a10 - u_a13 - 669 y_a13_proc_1 >= -1299
 c541: u_a14 - u_a10 - 1089 y_a10_proc_2 >= -2599
 c542: u_a14 - u_a10 - 1180 y_a10_proc_0 >= -2599
 c543: u_a14 - u_a10 - 1091 y_a10_proc_1 >= -3898
 c544: u_a10 - u_a14 - 1281 y_a14_proc_2 >= 0
 c545: u_a10 - u_a14 - 865 y_a14_proc_0 >= 0
 c546: u_a10 - u_a14 - 956 y_a14_proc_1 >= -1299
 c547: u_a12 - u_a11 - 1012 y_a11_proc_1 >= 1
 c548: u_a11 - u_a12 - 839 y_a12_proc_1 >= -2
 c549: u_a13 - u_a11 - 1257 y_a11_proc_2 >= -3897
 c550: u_a13 - u_a11 - 1012 y_a11_proc_1 >= -2598
 c551: u_a11 - u_a13 - 1075 y_a13_proc_2 >= -1300
 c552: u_a11 - u_a13 - 669 y_a13_proc_1 >= -1
 c553: u_a14 - u_a11 - 1257 y_a11_proc_2 >= -3897
 c554: u_a14 - u_a11 - 1012 y_a11_proc_1 >= -2598
 c555: u_a11 - u_a14 - 1281 y_a14_proc_2 >= -1300
 c556: u_a11 - u_a14 - 956 y_a14_proc_1 >= -1
 c557: u_a13 - u_a12 - 790 y_a12_proc_0 >= -2600
 c558: u_a13 - u_a12 - 839 y_a12_proc_1 >= -2600
 c559: u_a12 - u_a13 - 867 y_a13_proc_0 >= 1
 c560: u_a12 - u_a13 - 669 y_a13_proc_1 >= 1
 c561: u_a14 - u_a12 - 790 y_a12_proc_0 >= -2600
 c562: u_a14 - u_a12 - 839 y_a12_proc_1 >= -2600
 c563: u_a12 - u_a14 - 865 y_a14_proc_0 >= 1
 c564: u_a12 - u_a14 - 956 y_a14_proc_1 >= 1
 c565: u_a14 - u_a13 - 1075 y_a13_proc_2 >= -2599
 c566: u_a14 - u_a13 - 867 y_a13_proc_0 >= -1
 c567: u_a14 - u_a13 - 669 y_a13_proc_1 >= -2599
 c568: u_a13 - u_a14 - 1281 y_a14_proc_2 >= -2598
 c569: u_a13 - u_a14 - 865 y_a14_proc_0 >= 0
 c570: u_a13 - u_a14 - 956 y_a14_proc_1 >= -2598

Bounds
End
